
Gurobi 11.0.2 (win64) logging started Mon Aug 19 16:19:32 2024

Set parameter LogFile to value "D:\Documenti\Scuola\Laurea magistrale unibs\laurea-unibs-mkfsp\output\2024-08-19T13_57_45.433552\logs\instance03_bucket5.log"
Set parameter TimeLimit to value 400
Set parameter MIPGap to value 0
Gurobi Optimizer version 11.0.2 build v11.0.2rc0 (win64 - Windows 10.0 (19045.2))

CPU model: Intel(R) Core(TM) i5-4670 CPU @ 3.40GHz, instruction set [SSE2|AVX|AVX2]
Thread count: 4 physical cores, 4 logical processors, using up to 4 threads

Optimize a model with 2802 rows, 14551 columns and 156143 nonzeros
Model fingerprint: 0xf7920582
Variable types: 0 continuous, 14551 integer (14438 binary)
Coefficient statistics:
  Matrix range     [1e+00, 8e+03]
  Objective range  [6e+02, 8e+03]
  Bounds range     [1e+00, 1e+00]
  RHS range        [1e+00, 6e+05]
Found heuristic solution: objective 584105.00000
Presolve time: 0.23s
Presolved: 2802 rows, 14551 columns, 156143 nonzeros
Variable types: 0 continuous, 14551 integer (14438 binary)
Found heuristic solution: objective 588782.00000
Deterministic concurrent LP optimizer: primal and dual simplex
Showing primal log only...

Concurrent spin time: 0.00s

Solved with dual simplex

Root relaxation: objective 6.471600e+05, 937 iterations, 0.09 seconds (0.09 work units)

    Nodes    |    Current Node    |     Objective Bounds      |     Work
 Expl Unexpl |  Obj  Depth IntInf | Incumbent    BestBd   Gap | It/Node Time

     0     0 647160.000    0    8 588782.000 647160.000  9.92%     -    0s
H    0     0                    645070.00000 647160.000  0.32%     -    0s
H    0     0                    647160.00000 647160.000  0.00%     -    0s
     0     0 647160.000    0    8 647160.000 647160.000  0.00%     -    0s

Explored 1 nodes (3559 simplex iterations) in 0.56 seconds (0.43 work units)
Thread count was 4 (of 4 available processors)

Solution count 4: 647160 645070 588782 584105 

Optimal solution found (tolerance 0.00e+00)
Best objective 6.471600000000e+05, best bound 6.471600000000e+05, gap 0.0000%
